p tw 246 628
1 2
2 3
2 1
3 4
3 2
4 5
4 3
5 6
5 4
6 7
6 5
7 8
7 6
8 9
8 7
9 10
9 8
10 11
10 9
11 12
11 10
12 13
12 11
13 14
13 12
14 15
14 13
15 16
15 14
16 17
16 15
17 18
17 16
18 19
18 17
19 20
19 18
20 21
20 19
21 22
21 20
22 23
22 21
23 24
23 22
24 25
24 23
25 26
25 24
26 27
26 25
27 28
27 26
28 29
28 27
29 30
29 28
30 31
30 29
31 32
31 30
32 33
32 31
33 34
33 32
34 35
34 33
35 36
35 34
36 37
36 35
37 38
37 36
38 39
38 37
39 40
39 38
40 41
40 39
41 42
41 40
42 43
42 41
43 44
43 42
44 45
44 43
45 46
45 44
46 47
46 45
47 48
47 46
48 49
48 47
49 50
49 48
50 51
50 49
51 52
51 50
52 53
52 51
53 54
53 52
54 55
54 53
55 56
55 54
56 58
56 57
56 55
57 58
57 56
58 60
58 59
58 57
58 56
59 60
59 58
60 61
60 59
60 58
61 64
61 62
61 60
62 63
62 61
63 64
63 62
64 65
64 63
64 61
65 66
65 64
66 67
66 65
67 68
67 66
68 70
68 69
68 67
69 70
69 68
70 71
70 69
70 68
71 72
71 70
72 73
72 71
73 74
73 72
74 75
74 73
75 76
75 74
76 77
76 75
77 78
77 76
78 79
78 77
79 80
79 78
80 83
80 81
80 79
81 82
81 80
82 84
82 81
83 84
83 80
84 85
84 82
84 83
85 86
85 84
86 87
86 85
87 88
87 86
88 89
88 87
89 90
89 88
90 91
90 89
91 92
91 90
92 95
92 94
92 93
92 96
92 91
93 110
93 92
94 96
94 92
95 119
95 97
95 92
96 94
96 97
96 92
97 99
97 98
97 95
97 96
98 99
98 97
99 100
99 98
99 97
100 125
100 105
100 102
100 101
100 99
101 103
101 100
102 103
102 100
103 104
103 101
103 102
104 105
104 103
105 107
105 106
105 104
105 100
106 107
106 105
107 108
107 106
107 105
108 109
108 107
109 112
109 113
109 108
110 111
110 93
111 112
111 110
112 117
112 116
112 111
112 109
113 114
113 109
114 115
114 113
115 116
115 129
115 114
116 120
116 115
116 122
116 112
117 118
117 112
118 133
118 132
118 117
119 137
119 123
119 95
120 121
120 116
121 122
121 120
122 123
122 121
122 116
123 126
123 119
123 122
124 125
125 126
125 100
125 124
126 127
126 125
126 128
126 123
127 128
127 126
128 127
128 131
128 126
129 130
129 115
130 131
130 149
130 129
131 132
131 130
131 128
132 138
132 118
132 136
132 131
133 134
133 118
134 135
134 133
135 142
135 134
136 141
136 138
136 132
137 140
137 139
137 119
138 139
138 136
138 132
139 141
139 137
139 143
139 138
140 150
140 143
140 137
141 153
141 152
141 139
141 136
142 159
142 144
142 135
143 140
143 144
143 139
144 146
144 145
144 142
144 143
145 185
145 146
145 144
146 148
146 147
146 145
146 144
147 148
147 146
148 147
148 151
148 146
149 158
149 130
150 169
150 151
150 140
151 152
151 150
151 148
152 157
152 153
152 141
152 151
153 154
153 152
153 141
154 155
154 153
155 156
155 154
156 189
156 157
156 155
157 161
157 156
157 152
158 160
158 149
159 163
159 162
159 142
160 164
160 161
160 158
161 160
161 162
161 157
162 165
162 159
162 161
163 170
163 165
163 159
164 167
164 166
164 160
165 166
165 163
165 162
166 168
166 164
166 165
167 186
167 168
167 164
168 167
168 171
168 166
169 174
169 150
170 175
170 171
170 163
171 172
171 170
171 173
171 168
172 173
172 171
173 172
173 176
173 171
174 208
174 176
174 169
175 178
175 177
175 170
176 177
176 174
176 173
177 180
177 175
177 176
178 179
178 175
179 180
179 183
179 178
180 181
180 179
180 177
181 182
181 180
182 184
182 181
183 202
183 184
183 179
184 183
184 187
184 182
185 187
185 145
186 198
186 188
186 167
187 188
187 185
187 184
188 194
188 189
188 191
188 186
188 187
189 190
189 188
189 156
190 219
190 194
190 189
191 192
191 188
192 193
192 191
193 195
193 192
194 197
194 190
194 188
195 196
195 193
196 197
196 195
197 203
197 200
197 196
197 199
197 194
198 203
198 186
199 204
199 197
200 201
200 197
201 205
201 200
202 207
202 206
202 183
203 204
203 198
203 197
204 205
204 199
204 203
205 206
205 201
205 204
206 209
206 202
206 210
206 205
207 213
207 210
207 202
208 211
208 174
209 214
209 206
210 207
210 211
210 206
211 214
211 212
211 208
211 210
212 215
212 211
213 216
213 207
214 215
214 209
214 211
215 216
215 212
215 214
216 217
216 218
216 213
216 215
217 218
217 216
218 219
218 217
218 221
218 216
219 218
219 220
219 190
220 221
220 219
221 224
221 222
221 220
221 223
221 218
222 224
222 221
223 225
223 221
224 225
224 222
224 221
225 232
225 231
225 230
225 227
225 226
225 228
225 223
225 224
226 239
226 225
227 233
227 225
228 229
228 225
229 234
229 228
230 240
230 225
231 232
231 225
232 233
232 231
232 225
233 234
233 227
233 232
234 237
234 236
234 235
234 229
234 233
235 238
235 234
236 237
236 234
237 238
237 236
237 234
238 239
238 235
238 237
239 240
239 226
239 238
240 241
240 230
240 239
241 244
241 243
241 242
241 240
242 245
242 241
243 244
243 241
244 245
244 243
244 241
245 246
245 242
245 244
246 245
